NAME : RC208
TYPE : CVRPTW
DIMENSION : 11
VEHICLES : 25
CAPACITY : 1000
SERVICE_TIME : 10
EDGE_WEIGHT_TYPE : EUC_2D
NODE_COORD_SECTION
1 40 50
2 25 85
3 22 75
4 22 85
5 20 80
6 20 85
7 18 75
8 15 75
9 15 80
10 10 35
11 10 40
DEMAND_SECTION
1 0
2 20
3 30
4 10
5 40
6 20
7 20
8 20
9 10
10 20
11 30
TIME_WINDOW_SECTION
1 0 960
2 388 911
3 30 546
4 353 708
5 425 913
6 40 630
7 228 667
8 161 558
9 229 624
10 213 648
11 404 753
DEPOT_SECTION
1 
-1
EOF
